# Node Net
771   1
4891   1
4867   1
4201   1
141   2
4854   2
4846   2
1821   2
4410   3
 70   3
2101   3
3710   3
4866   4
4862   4
 14   4
 22   4
2731   5
4270   5
 29   5
3290   6
1540   6
4857   6
560   7
3641   7
 33   7
 69   8
4551   8
 17   8
  9   9
350   9
 25  10
3780  10
 43  11
4831  11
